n=10;
hearts=39;
clubs=3;
spades=30;
diamonds=86;
blocked=2;
m=array2d(1..n, 1..n,[
	_,_,_,_,_,_,_,_,_,_,
	_,_,_,_,_,_,_,_,_,_,
	_,5,_,_,_,_,1,_,_,_,
	_,_,_,_,3,_,_,_,_,_,
	_,3,_,_,_,_,_,_,_,_,
	_,_,_,_,_,_,_,_,_,_,
	_,2,_,_,3,1,_,_,_,_,
	_,_,_,_,_,_,_,_,_,_,
	_,_,_,_,5,_,_,_,_,_,
	_,_,_,_,_,_,_,_,_,_
]);
